#######################################
### Exact MIP solver for the HHCRSP ###
#######################################
-- Instance file: new-instances/HHCRSP_200_40_66_1.2_R_C.txt
-- Max threads: 4
-- Time limit: 999999 seconds
-- Use initial solution: No
Trivial flow violations prevented generating 362470 variables.
Version identifier: 20.1.0.0 | 2020-11-10 | 9bedb6d68
CPXPARAM_Threads                                 4
CPXPARAM_TimeLimit                               999999
Parallel mode: deterministic, using up to 4 threads for concurrent optimization:
 * Starting dual Simplex on 1 thread...
 * Starting Barrier on 3 threads...
Tried aggregator 1 time.
LP Presolve eliminated 22992 rows and 6006 columns.
Reduced LP has 446072 rows, 423777 columns, and 8143244 nonzeros.
Presolve time = 18.76 sec. (1858.61 ticks)
Symmetry aggregator did 706276 additional substitutions.

Iteration log . . .
Iteration:     1   Dual objective     =             0.000000

Dual crossover.
  Dual:  Fixing 664 variables.
      663 DMoves:  Infeasibility  5.32685007e-13  Objective  1.92333333e+02
        0 DMoves:  Infeasibility  3.65651953e-13  Objective  1.92333333e+02
  Dual:  Pushed 34, exchanged 630.
  Primal:  Fixing 792 variables.
      791 PMoves:  Infeasibility  4.44089210e-16  Objective  1.92333333e+02
        0 PMoves:  Infeasibility  7.27228607e-16  Objective  1.92333333e+02
  Primal:  Pushed 700, exchanged 92.

Dual simplex solved model.


Solution status from MIP model:
-- Processing time: 30.436 sec.
-- Memory used: 459.084 MB
-- Best bound: inf
-- Obj value: 192.333
-- Gap: inf%
-- Total distance: 577
-- Total tardiness: 0
-- Largest tardiness: 0
